
Gurobi 9.0.1 (linux64) logging started Thu Apr 30 19:34:05 2020

Gurobi Optimizer version 9.0.1 build v9.0.1rc0 (linux64)
Optimize a model with 30902 rows, 27380 columns and 601320 nonzeros
Model fingerprint: 0xf01346cb
Variable types: 0 continuous, 27380 integer (27342 binary)
Coefficient statistics:
  Matrix range     [1e+00, 2e+01]
  Objective range  [3e+00, 1e+02]
  Bounds range     [1e+00, 1e+00]
  RHS range        [1e+00, 1e+00]

User MIP start produced solution with objective 1186 (0.94s)
Loaded user MIP start with objective 1186

Presolve removed 11480 rows and 8069 columns (presolve time = 5s) ...
Presolve removed 11522 rows and 8129 columns (presolve time = 11s) ...
Presolve removed 11522 rows and 8129 columns
Presolve time: 10.71s
Presolved: 19380 rows, 19251 columns, 506300 nonzeros
Variable types: 0 continuous, 19251 integer (19215 binary)

Root simplex log...

Iteration    Objective       Primal Inf.    Dual Inf.      Time
       0    0.0000000e+00   2.600000e+02   0.000000e+00     13s
    1821    5.2500008e+02   3.865688e+03   0.000000e+00     15s
    3606    5.2500013e+02   7.880644e+03   0.000000e+00     20s
    5051    5.3266681e+02   2.171054e+03   0.000000e+00     25s
    6326    5.3400016e+02   3.831500e+04   0.000000e+00     30s
    7516    5.3900015e+02   1.252745e+04   0.000000e+00     35s
    8706    5.4257271e+02   4.281371e+03   0.000000e+00     40s
    9726    5.4300015e+02   1.877743e+04   0.000000e+00     45s
   10656    5.4300020e+02   2.198907e+04   0.000000e+00     50s
   11591    5.4347493e+02   2.674735e+04   0.000000e+00     55s
   12526    5.4535957e+02   1.394991e+04   0.000000e+00     60s
   13376    5.4725869e+02   4.534917e+04   0.000000e+00     65s
   14211    5.4798747e+02   4.952888e+03   0.000000e+00     71s
   15061    5.5351092e+02   5.621775e+04   0.000000e+00     75s
   16081    5.5397478e+02   8.652765e+03   0.000000e+00     80s
   16931    5.5590232e+02   4.371951e+04   0.000000e+00     85s
   17781    5.5739409e+02   9.236366e+04   0.000000e+00     90s
   18631    5.5832960e+02   5.869380e+04   0.000000e+00     95s
   19481    5.6051627e+02   8.335791e+03   0.000000e+00    100s
   20246    5.6140529e+02   3.244363e+03   0.000000e+00    105s
   21096    5.6288041e+02   3.053054e+03   0.000000e+00    110s
   21946    5.6495216e+02   7.163091e+03   0.000000e+00    115s
   22796    5.6558396e+02   2.862403e+04   0.000000e+00    120s
   23561    5.6610902e+02   2.225224e+03   0.000000e+00    125s
   24326    5.6665676e+02   1.044972e+04   0.000000e+00    130s
   25006    5.6733244e+02   1.042757e+04   0.000000e+00    135s
   25856    5.6802178e+02   3.502593e+03   0.000000e+00    140s
   26791    5.6820553e+02   8.710422e+03   0.000000e+00    145s
   27556    5.6853395e+02   4.980390e+03   0.000000e+00    150s
   28360    5.6892206e+02   2.047290e+03   0.000000e+00    155s
   29145    5.6931221e+02   1.731322e+04   0.000000e+00    160s
   29890    5.6968976e+02   1.931591e+03   0.000000e+00    166s
   30584    5.6992713e+02   2.446302e+03   0.000000e+00    170s
   31264    5.7009549e+02   8.338903e+03   0.000000e+00    175s
   31944    5.7048797e+02   1.693750e+03   0.000000e+00    180s
   32639    5.7071630e+02   1.891307e+03   0.000000e+00    185s
   33400    5.7093238e+02   2.076526e+03   0.000000e+00    191s
   33984    5.7105864e+02   1.677685e+03   0.000000e+00    195s
   34722    5.7118290e+02   4.187612e+02   0.000000e+00    201s
   35354    5.7126688e+02   9.917751e+01   0.000000e+00    206s
   35980    5.7134784e+02   1.083414e+03   0.000000e+00    210s
   36588    5.7145390e+02   2.798983e+02   0.000000e+00    215s
   37303    5.7156305e+02   1.585432e+03   0.000000e+00    221s
   37983    5.7165278e+02   9.734915e+02   0.000000e+00    226s
   38578    5.7172589e+02   3.319730e+02   0.000000e+00    230s
   39258    5.7177619e+02   5.982585e+01   0.000000e+00    236s
   39776    5.7182809e+02   1.690335e+03   0.000000e+00    240s
   40458    5.7185890e+02   6.281954e+00   0.000000e+00    245s
   40722    5.7186405e+02   0.000000e+00   0.000000e+00    247s

Root relaxation: objective 5.718640e+02, 40722 iterations, 235.30 seconds

    Nodes    |    Current Node    |     Objective Bounds      |     Work
 Expl Unexpl |  Obj  Depth IntInf | Incumbent    BestBd   Gap | It/Node Time

     0     0  571.86405    0 3540 1186.00000  571.86405  51.8%     -  257s
     0     0  613.62008    0 3385 1186.00000  613.62008  48.3%     -  519s
     0     0  613.79903    0 3402 1186.00000  613.79903  48.2%     -  553s
     0     0  613.85328    0 3331 1186.00000  613.85328  48.2%     -  572s
     0     0  613.85684    0 3345 1186.00000  613.85684  48.2%     -  575s
     0     0  623.25629    0 3606 1186.00000  623.25629  47.4%     -  817s
     0     0  623.34893    0 3616 1186.00000  623.34893  47.4%     -  844s
     0     0  623.34977    0 3590 1186.00000  623.34977  47.4%     -  847s
     0     0  630.82683    0 3688 1186.00000  630.82683  46.8%     - 1265s
     0     0  631.83924    0 3645 1186.00000  631.83924  46.7%     - 1372s
     0     0  632.10655    0 3636 1186.00000  632.10655  46.7%     - 1422s
     0     0  632.14558    0 3656 1186.00000  632.14558  46.7%     - 1439s
     0     0  632.14856    0 3649 1186.00000  632.14856  46.7%     - 1444s
     0     0  636.12183    0 3686 1186.00000  636.12183  46.4%     - 1829s
     0     0  636.65522    0 3652 1186.00000  636.65522  46.3%     - 1934s
     0     0  636.73541    0 3641 1186.00000  636.73541  46.3%     - 1963s
     0     0  636.75569    0 3639 1186.00000  636.75569  46.3%     - 1978s
     0     0  636.76971    0 3648 1186.00000  636.76971  46.3%     - 1989s
     0     0  637.33416    0 3684 1186.00000  637.33416  46.3%     - 2148s
     0     0  637.41729    0 3668 1186.00000  637.41729  46.3%     - 2203s
     0     0  637.43767    0 3679 1186.00000  637.43767  46.3%     - 2220s
     0     0  637.44247    0 3668 1186.00000  637.44247  46.3%     - 2227s
     0     0  638.01327    0 3751 1186.00000  638.01327  46.2%     - 2369s
     0     0  638.12232    0 3760 1186.00000  638.12232  46.2%     - 2430s
     0     0  638.15189    0 3765 1186.00000  638.15189  46.2%     - 2449s
     0     0  638.16003    0 3766 1186.00000  638.16003  46.2%     - 2459s
     0     0  638.60832    0 3726 1186.00000  638.60832  46.2%     - 2560s
     0     0  638.69060    0 3752 1186.00000  638.69060  46.1%     - 2627s
     0     0  638.70925    0 3738 1186.00000  638.70925  46.1%     - 2644s
     0     0  638.92489    0 3727 1186.00000  638.92489  46.1%     - 2712s
     0     0  638.95672    0 3744 1186.00000  638.95672  46.1%     - 2773s
     0     0  638.96585    0 3732 1186.00000  638.96585  46.1%     - 2784s
     0     0  640.14920    0 3744 1186.00000  640.14920  46.0%     - 2915s
     0     0  640.23896    0 3740 1186.00000  640.23896  46.0%     - 3028s
     0     0  640.25739    0 3761 1186.00000  640.25739  46.0%     - 3043s
     0     0  640.81325    0 3707 1186.00000  640.81325  46.0%     - 3156s
     0     0  640.91524    0 3729 1186.00000  640.91524  46.0%     - 3344s
     0     0  640.93868    0 3739 1186.00000  640.93868  46.0%     - 3364s
     0     0  640.94605    0 3756 1186.00000  640.94605  46.0%     - 3375s
     0     0  641.23721    0 3745 1186.00000  641.23721  45.9%     - 3451s
     0     0  641.58968    0 3753 1186.00000  641.58968  45.9%     - 3522s
     0     0  641.66098    0 3737 1186.00000  641.66098  45.9%     - 3556s
     0     0  641.69250    0 3766 1186.00000  641.69250  45.9%     - 3575s
     0     0  641.70507    0 3765 1186.00000  641.70507  45.9%     - 3589s
     0     0          -    0      1186.00000  641.70507  45.9%     - 3600s

Cutting planes:
  Cover: 1
  MIR: 69
  StrongCG: 14
  Zero half: 40
  Mod-K: 12
  RLT: 2476

Explored 1 nodes (301083 simplex iterations) in 3600.03 seconds
Thread count was 1 (of 40 available processors)

Solution count 1: 1186 

Time limit reached
Best objective 1.186000000000e+03, best bound 6.420000000000e+02, gap 45.8685%

User-callback calls 11145, time in user-callback 0.03 sec
